(set-info :smt-lib-version 2.6)
(set-logic QF_UFLRA)
(set-info :source |
MathSat group

|)
(set-info :category "random")
(set-info :status sat)
(declare-fun x0 () Real)
(declare-fun x1 () Real)
(declare-fun x2 () Real)
(declare-fun x3 () Real)
(declare-fun x4 () Real)
(declare-fun x5 () Real)
(declare-fun x6 () Real)
(declare-fun x7 () Real)
(declare-fun x8 () Real)
(declare-fun x9 () Real)
(declare-fun x10 () Real)
(declare-fun x11 () Real)
(declare-fun x12 () Real)
(declare-fun x13 () Real)
(declare-fun x14 () Real)
(declare-fun x15 () Real)
(declare-fun x16 () Real)
(declare-fun x17 () Real)
(declare-fun x18 () Real)
(declare-fun x19 () Real)
(declare-fun x20 () Real)
(declare-fun x21 () Real)
(declare-fun x22 () Real)
(declare-fun x23 () Real)
(declare-fun x24 () Real)
(declare-fun x25 () Real)
(declare-fun x26 () Real)
(declare-fun x27 () Real)
(declare-fun x28 () Real)
(declare-fun x29 () Real)
(declare-fun x30 () Real)
(declare-fun x31 () Real)
(declare-fun x32 () Real)
(declare-fun x33 () Real)
(declare-fun x34 () Real)
(declare-fun x35 () Real)
(declare-fun x36 () Real)
(declare-fun x37 () Real)
(declare-fun x38 () Real)
(declare-fun x39 () Real)
(declare-fun x40 () Real)
(declare-fun x41 () Real)
(declare-fun x42 () Real)
(declare-fun x43 () Real)
(declare-fun x44 () Real)
(declare-fun x45 () Real)
(declare-fun x46 () Real)
(declare-fun x47 () Real)
(declare-fun x48 () Real)
(declare-fun x49 () Real)
(declare-fun f0_1 (Real) Real)
(declare-fun f0_2 (Real Real) Real)
(declare-fun f0_3 (Real Real Real) Real)
(declare-fun f0_4 (Real Real Real Real) Real)
(declare-fun P0 () Bool)
(declare-fun P1 () Bool)
(declare-fun P2 () Bool)
(declare-fun P3 () Bool)
(declare-fun P4 () Bool)
(declare-fun P5 () Bool)
(declare-fun P6 () Bool)
(declare-fun P7 () Bool)
(declare-fun P8 () Bool)
(declare-fun P9 () Bool)
(declare-fun P10 () Bool)
(declare-fun P11 () Bool)
(declare-fun P12 () Bool)
(declare-fun P13 () Bool)
(declare-fun P14 () Bool)
(declare-fun P15 () Bool)
(declare-fun P16 () Bool)
(declare-fun P17 () Bool)
(declare-fun P18 () Bool)
(declare-fun P19 () Bool)
(declare-fun P20 () Bool)
(declare-fun P21 () Bool)
(declare-fun P22 () Bool)
(declare-fun P23 () Bool)
(declare-fun P24 () Bool)
(declare-fun P25 () Bool)
(declare-fun P26 () Bool)
(declare-fun P27 () Bool)
(declare-fun P28 () Bool)
(declare-fun P29 () Bool)
(declare-fun P30 () Bool)
(declare-fun P31 () Bool)
(declare-fun P32 () Bool)
(declare-fun P33 () Bool)
(declare-fun P34 () Bool)
(declare-fun P35 () Bool)
(declare-fun P36 () Bool)
(declare-fun P37 () Bool)
(declare-fun P38 () Bool)
(declare-fun P39 () Bool)
(declare-fun P40 () Bool)
(declare-fun P41 () Bool)
(declare-fun P42 () Bool)
(declare-fun P43 () Bool)
(declare-fun P44 () Bool)
(declare-fun P45 () Bool)
(declare-fun P46 () Bool)
(declare-fun P47 () Bool)
(declare-fun P48 () Bool)
(declare-fun P49 () Bool)
(assert (let ((?v_130 (* 2 x41)) (?v_70 (* 6 x27)) (?v_5 (* 13 x47)) (?v_108 (<= (- (+ (* 13 x42) (* 9 x13)) (* 10 x8)) 1)) (?v_37 (< (- (- (* 9 x39) (* 26 x39)) (* 22 x49)) 1)) (?v_94 (< (+ (- (* 23 x31) (* 13 x5)) (* 8 x15)) 10)) (?v_135 (<= (- (- (* 3 x7) (* 5 x24)) (* 14 x23)) 0)) (?v_119 (<= (- (- (* 16 x3) (* 12 x2)) (* 13 x22)) 3)) (?v_11 (= (- (+ (* 25 x17) (* 18 x32)) (* 16 x36)) 3)) (?v_43 (* 3 x48))) (let ((?v_200 (distinct (- (- (* 20 x43) ?v_43) (* 8 x13)) 0)) (?v_92 (< (- (- (* 18 x34) (* 13 x27)) (* 17 x37)) 24)) (?v_25 (* 25 x49)) (?v_186 (< (- (- (* 8 x37) (* 24 x44)) (* 9 x28)) 28)) (?v_56 (<= (- (+ (* 25 x9) (* 15 x8)) (* 27 x25)) 24)) (?v_120 (<= (- (- (* 9 x44) (* 9 x24)) (* 26 x44)) 14)) (?v_172 (<= (- (- (* 15 x22) (* 14 x31)) (* 13 x38)) 18)) (?v_180 (= x35 x15)) (?v_243 (distinct (f0_2 x21 x23) (f0_1 x12))) (?v_67 (f0_1 x28))) (let ((?v_63 (distinct (f0_2 x7 x22) ?v_67)) (?v_32 (f0_1 x23))) (let ((?v_91 (distinct ?v_32 (f0_2 x8 x5))) (?v_20 (distinct x31 (f0_2 x14 x36))) (?v_101 (distinct (f0_2 x13 x41) (f0_2 x3 x18))) (?v_10 (f0_1 x18))) (let ((?v_27 (distinct x16 ?v_10)) (?v_21 (distinct (f0_1 x13) x34)) (?v_14 (f0_1 x20))) (let ((?v_57 (distinct (f0_2 x9 x9) ?v_14)) (?v_217 (distinct x45 (f0_1 x47))) (?v_64 (= (f0_2 x43 x48) x18)) (?v_184 (distinct x35 (f0_1 x39))) (?v_125 (distinct (f0_2 x0 x14) x38)) (?v_246 (distinct x7 (f0_1 x34))) (?v_49 (distinct x2 (f0_2 x21 x30))) (?v_40 (= (f0_2 x26 x19) x48)) (?v_195 (distinct (f0_2 x2 x28) (f0_2 x49 x31))) (?v_52 (distinct ?v_10 x30)) (?v_6 (= (f0_1 x7) x2)) (?v_15 (distinct x8 (f0_2 x41 x37))) (?v_133 (= ?v_14 (f0_2 x13 x43))) (?v_54 (f0_1 x2))) (let ((?v_73 (= ?v_54 x43)) (?v_170 (= x0 x40)) (?v_131 (= (f0_2 x7 x27) (f0_2 x33 x29))) (?v_229 (= (f0_1 x26) (f0_2 x29 x11))) (?v_204 (= x9 (f0_2 x37 x9))) (?v_115 (= (f0_1 x38) x25)) (?v_18 (f0_2 x14 x44))) (let ((?v_179 (distinct ?v_18 ?v_32)) (?v_194 (= (f0_2 x29 x43) ?v_67)) (?v_169 (= x29 (f0_2 x1 x37))) (?v_60 (distinct x42 x16)) (?v_149 (distinct (f0_2 x36 x18) x47)) (?v_105 (distinct x29 (f0_2 x11 x1))) (?v_161 (distinct (f0_1 x3) (f0_1 x46))) (?v_50 (distinct (f0_2 x20 x29) x43)) (?v_202 (distinct x31 (f0_1 x41))) (?v_230 (= (f0_2 x38 x9) (f0_1 x8))) (?v_75 (distinct ?v_10 x31)) (?v_51 (distinct x20 x42)) (?v_12 (= x22 (f0_2 x14 x21))) (?v_132 (distinct (f0_1 x14) (f0_2 x5 x32))) (?v_19 (f0_1 x16))) (let ((?v_4 (distinct ?v_19 (f0_2 x3 x14))) (?v_113 (= (f0_2 x30 x49) ?v_18)) (?v_145 (distinct (f0_2 x30 x27) x45)) (?v_109 (= x48 x16)) (?v_0 (= (f0_1 x27) ?v_54)) (?v_151 (distinct (f0_2 x35 x3) (f0_2 x36 x27))) (?v_44 (distinct ?v_19 (f0_2 x13 x16))) (?v_84 (= (f0_1 x10) (f0_2 x1 x2))) (?v_159 (distinct x19 (f0_1 x21))) (?v_36 (not P29)) (?v_74 (not ?v_50))) (let ((?v_240 (not ?v_0)) (?v_22 (not P49)) (?v_160 (not ?v_57)) (?v_96 (not ?v_125)) (?v_13 (not P3)) (?v_47 (not P19)) (?v_136 (not P1)) (?v_30 (not P45)) (?v_158 (not P34)) (?v_55 (not P47)) (?v_26 (not P25)) (?v_183 (not P39)) (?v_97 (not ?v_180)) (?v_77 (not P43)) (?v_89 (not ?v_109)) (?v_138 (not ?v_184)) (?v_33 (not P11)) (?v_28 (not P13)) (?v_107 (not P33)) (?v_59 (not ?v_135)) (?v_82 (not P31)) (?v_134 (not ?v_63)) (?v_83 (not ?v_6)) (?v_174 (not P42)) (?v_71 (not ?v_11)) (?v_29 (not P16)) (?v_61 (not ?v_115)) (?v_48 (not ?v_4)) (?v_24 (not ?v_52)) (?v_53 (not ?v_12)) (?v_38 (not P35)) (?v_79 (not ?v_133)) (?v_208 (not P40)) (?v_225 (not ?v_179)) (?v_261 (not ?v_20)) (?v_207 (not ?v_119)) (?v_102 (not ?v_94)) (?v_46 (not P41)) (?v_35 (not ?v_243)) (?v_148 (not P4)) (?v_87 (not ?v_27)) (?v_99 (not ?v_91)) (?v_69 (not P18)) (?v_211 (not ?v_145)) (?v_95 (not ?v_120)) (?v_176 (not ?v_37)) (?v_236 (not ?v_75)) (?v_116 (not P22)) (?v_45 (not P38)) (?v_90 (not ?v_49)) (?v_234 (not ?v_200)) (?v_205 (not ?v_15)) (?v_85 (not P26)) (?v_187 (not ?v_132)) (?v_258 (not ?v_170)) (?v_104 (not ?v_151)) (?v_162 (not P14)) (?v_111 (not ?v_40)) (?v_227 (not P30)) (?v_110 (not ?v_51)) (?v_62 (not P44)) (?v_93 (not ?v_73)) (?v_114 (not ?v_44)) (?v_66 (not ?v_56)) (?v_86 (not P36)) (?v_72 (not ?v_60)) (?v_201 (not ?v_64)) (?v_139 (not ?v_230)) (?v_150 (not ?v_194)) (?v_128 (not ?v_108)) (?v_255 (not ?v_84)) (?v_156 (not P28)) (?v_88 (not P10)) (?v_210 (not P37)) (?v_178 (not ?v_161)) (?v_126 (not ?v_92)) (?v_154 (not P2)) (?v_122 (not P27)) (?v_212 (not P9)) (?v_228 (not P6)) (?v_219 (not ?v_21)) (?v_203 (not P48)) (?v_163 (not ?v_169)) (?v_147 (not ?v_131)) (?v_259 (or ?v_132 P2)) (?v_152 (not ?v_113))) (let ((?v_199 (or ?v_45 ?v_152)) (?v_166 (not P21)) (?v_192 (not ?v_105)) (?v_214 (not ?v_159)) (?v_231 (not P15)) (?v_251 (not ?v_101)) (?v_181 (not P8)) (?v_235 (not P5)) (?v_222 (not ?v_172)) (?v_253 (not P0)) (?v_232 (not ?v_229)) (?v_198 (not P32)) (?v_247 (not ?v_195)) (?v_233 (not P24)) (?v_224 (not ?v_149)) (?v_238 (not P7)) (?v_237 (not P12)) (?v_244 (not ?v_204)) (?v_252 (not P20)) (?v_242 (not P23)) (?v_239 (not P46)) (?v_245 (not ?v_217)) (?v_250 (not ?v_246)) (?v_257 (not ?v_202)) (?v_143 (= (- (- (* 15 x42) 0) ?v_130) 0))) (let ((?v_9 (not ?v_143)) (?v_223 (<= (+ (* 12 x15) (* 5 x48) (* 18 x21)) 6))) (let ((?v_175 (not ?v_223)) (?v_34 (= (- (* 16 x25) (* 25 x10)) 24))) (let ((?v_127 (not ?v_34)) (?v_197 (<= (- (+ (* 16 x19) (* 3 x41)) x47) 22))) (let ((?v_103 (not ?v_197)) (?v_226 (< (+ (* 20 x23) (* 26 x31) (* 9 x49)) 13))) (let ((?v_215 (not ?v_226)) (?v_141 (distinct (+ (* 21 x41) (* 4 x42) (* 14 x17)) 22))) (let ((?v_164 (not ?v_141)) (?v_262 (or P29 ?v_215)) (?v_16 (<= (+ (- (* (- 2) x12) (* 3 x35)) ?v_25) 1)) (?v_3 (distinct (- (- (* (- 18) x25) (* 11 x33)) (* 14 x35)) 0))) (let ((?v_1 (not ?v_3)) (?v_2 (<= (+ (* (- 12) x4) (* 20 x44) (* 9 x3)) (- 14))) (?v_80 (= (- (- (* (- 26) x4) (* 3 x9)) x22) (- 12)))) (let ((?v_124 (not ?v_80)) (?v_76 (<= (+ (- (* (- 10) x45) (* 14 x12)) (* 26 x7)) 14)) (?v_39 (<= (- (- (* (- 18) x10) (* 17 x18)) (* 24 x41)) (- 6)))) (let ((?v_249 (not ?v_39)) (?v_173 (< (+ (* (- 21) x17) (* 13 x25) (* 17 x22)) 21))) (let ((?v_7 (not ?v_173)) (?v_81 (= (+ ?v_70 (* 17 x41) ?v_5) (- 13)))) (let ((?v_191 (not ?v_81)) (?v_121 (not ?v_2)) (?v_100 (< (- (* 8 x39) ?v_43) (- 23)))) (let ((?v_220 (not ?v_100)) (?v_23 (< (- (- (* (- 24) x36) (* 24 x31)) (* 4 x41)) (- 8)))) (let ((?v_193 (not ?v_23)) (?v_41 (< (- (* (- 9) x48) (* 16 x24)) 16))) (let ((?v_144 (not ?v_41)) (?v_31 (<= (+ (* 6 x23) ?v_5 (* 11 x14)) (- 14))) (?v_8 (< (+ (- (* (- 24) x27) (* 2 x29)) (* 17 x39)) 3)) (?v_17 (<= (- (- (* (- 23) x8) (* 11 x13)) 0) (- 4))) (?v_106 (< (- (+ (* (- 24) x38) (* 21 x19)) (* 8 x35)) (- 13))) (?v_58 (not ?v_16)) (?v_248 (<= (+ (* 24 x16) (* 21 x36) (* 6 x49)) (- 28)))) (let ((?v_42 (not ?v_248)) (?v_185 (<= (- (- (* 20 x37) ?v_25) (* 11 x29)) (- 2))) (?v_171 (distinct (- (+ (* (- 12) x33) (* 10 x20)) (* 21 x45)) (- 14))) (?v_129 (not ?v_8)) (?v_216 (not ?v_31)) (?v_123 (< (- (- (* (- 1) x30) (* 15 x34)) (* 26 x16)) 15)) (?v_68 (<= (- (+ (* (- 3) x1) (* 25 x4)) (* 14 x40)) 16)) (?v_118 (<= (- (+ (* (- 13) x39) (* 11 x35)) (* 5 x9)) (- 18)))) (let ((?v_165 (not ?v_118)) (?v_65 (< (- (+ (* 7 x7) (* 3 x25)) (* 13 x24)) (- 10))) (?v_157 (not ?v_17)) (?v_78 (<= (+ (* (- 19) x29) (* 10 x9) (* 5 x5)) (- 19)))) (let ((?v_137 (not ?v_65)) (?v_117 (not ?v_68)) (?v_190 (<= (+ (- (* (- 16) x29) ?v_70) (* 23 x32)) (- 4)))) (let ((?v_142 (not ?v_190)) (?v_98 (not ?v_76)) (?v_155 (not ?v_78)) (?v_112 (< (+ (- (* (- 5) x40) (* 17 x47)) (* 13 x31)) 5)) (?v_256 (<= (+ (* 2 x2) (* 22 x47) (* 21 x34)) (- 15)))) (let ((?v_146 (not ?v_256)) (?v_182 (not ?v_112)) (?v_213 (< (- (- (* (- 19) x14) (* 2 x8)) (* 11 x36)) 2))) (let ((?v_254 (not ?v_213)) (?v_177 (<= (- (* 5 x6) (* 2 x1)) (- 27)))) (let ((?v_206 (not ?v_177)) (?v_188 (< (- (* 5 x26) ?v_130) (- 20)))) (let ((?v_140 (not ?v_188)) (?v_167 (<= (+ (- (* (- 20) x20) (* 17 x10)) (* 12 x4)) (- 14)))) (let ((?v_153 (not ?v_167)) (?v_241 (= (- (- (* (- 16) x18) (* 19 x31)) (* 27 x44)) 23))) (let ((?v_168 (not ?v_241)) (?v_221 (< (- (- (* (- 27) x4) (* 14 x39)) (* 11 x24)) 29))) (let ((?v_196 (not ?v_221)) (?v_189 (not ?v_185)) (?v_209 (not ?v_123)) (?v_218 (not ?v_106)) (?v_260 (not ?v_171))) (and (and (and (and (and (and (and (and (and (and (and (and (and (and (and (and (and (and (and (and (and (and (and (and (and (and (and (and (and (and (and (and (and (and (and (and (and (and (and (and (and (and (and (and (and (and (and (and (and (and (and (and (and (and (and (and (and (and (and (and (and (and (and (and (and (and (and (and (and (and (and (and (and (and (and (and (and (and (and (and (and (and (and (and (and (and (and (and (and (and (and (and (and (and (and (and (and (and (and (and (and (and (and (and (and (and (and (and (and (and (and (and (and (and (and (and (and (and (and (and (and (and (and (and (and (and (and (and (and (and (and (and (and (and (and (and (and (and (and (and (and (and (and (and (and (and (and (and (and (and (and (and (and (and (and (and (and (and (and (and (and (and (and (and (and (and (and (and (and (and (and (and (and (and (and (and (and (and (and (and (and (and (and (and (and (and (and (and (and (and (and (and (and (and (and (and (and (and (and (and (and (and (and (and (and (and (and (and (and (and (and (and (and (and (and (and (and (and (and (and (and (and (and (and (and (and (and (and (and (and (and (and (and (and (and (and (and (and (and (and (and (and (and (and (and (and (and (and (and (and (and (and (and (and (and (and (and (and (and (and (and (and (and (and (and (and (and (and (and (and (and (and (and (and (and (and (and (and (and (and (and (and (and (and (and (and (and (and (and (and (and (and (and (and (and (and (and (and (and (and (and (and (and (and (and (and (and (and (and (and (and (and (and (and (and (and (and (and (and (and (and (and (and (and (and (and (and (and (and (and (and (and (and (and (and (and (and (and (and (and (and (and (and (and (and (and (and (and (and (and (and (and (and (and (and (and (and (and (and (and (and (and (and (and (and (and (and (and (and (and (and (and (and (and (and (and (and (and (and (and (and (and (and (and (and (and (and (and (and (and (and (and (and (and (and (and (and (and (and (and (and (and (and (and (and (and (and (and (and (and (and (and (and (and (and (and (and (and (and (and (and (and (and (and (and (and (and (and (and (and (and (and (and (and (and (and (and (and (and (and (and (and (and (and (and (and (and (and (and (and (and (and (and (and (and (and (and (and (and (and (and (and (and (and (and (and (and (and (and (and (and (and (and (and (and (and (and (and (and (and (and (and (and (and (and (and (and (and (and (and (and (and (and (and (and (and (and (and (and (and (and (and (and (and (and (and (and (and (and (and (and (and (and (and (and (and (and (and (and (and (and (and (and (and (and (and (and (and (and (and (and (and (and (and (and (and (and (and (and (and (and (and (and (and (and (and (and (and (and (and (and (and (and (and (and (and (and (and (and (and (and (and (and (and (and (and (and (and (and (and (and (and (and (and (and (and (and (and (and (and (and (and (and (and (and (and (and (and (and (and (and (and (and (and (and (and (and (and (and (or (or ?v_36 ?v_74) ?v_84) (or (or ?v_240 ?v_6) ?v_22)) (or (or ?v_16 ?v_0) ?v_160)) (or (or ?v_96 ?v_27) P40)) (or (or ?v_13 ?v_113) ?v_47)) (or (or ?v_1 ?v_136) ?v_30)) (or (or ?v_1 ?v_2) ?v_158)) (or (or ?v_55 ?v_20) ?v_26)) (or (or ?v_124 ?v_183) ?v_76)) (or (or ?v_131 ?v_249) ?v_7)) (or (or P16 ?v_191) ?v_4)) (or (or ?v_121 ?v_220) ?v_204)) (or (or ?v_193 ?v_97) P5)) (or (or ?v_37 ?v_15) ?v_77)) (or (or ?v_89 ?v_138) ?v_33)) (or (or ?v_28 ?v_107) ?v_3)) (or (or ?v_4 P14) ?v_64)) (or (or ?v_144 ?v_9) ?v_12)) (or (or ?v_59 ?v_31) ?v_82)) (or (or ?v_134 ?v_8) ?v_83)) (or (or ?v_175 ?v_7) ?v_174)) (or (or ?v_8 ?v_9) ?v_71)) (or (or ?v_29 ?v_34) ?v_40)) (or (or ?v_61 ?v_21) ?v_48)) (or (or ?v_24 ?v_17) ?v_11)) (or (or P5 ?v_53) ?v_38)) (or (or P40 P14) ?v_56)) (or (or ?v_106 ?v_13) ?v_79)) (or (or ?v_15 ?v_58) ?v_17)) (or (or ?v_208 ?v_225) P27)) (or (or ?v_1 ?v_44) ?v_261)) (or (or ?v_92 ?v_21) ?v_22)) (or (or P36 ?v_42) ?v_207)) (or (or ?v_17 P11) ?v_23)) (or (or ?v_24 ?v_185) ?v_26)) (or (or ?v_27 ?v_28) ?v_171)) (or (or ?v_29 ?v_28) ?v_51)) (or (or ?v_30 ?v_102) ?v_46)) (or (or ?v_129 ?v_35) ?v_148)) (or (or ?v_216 ?v_87) ?v_99)) (or (or ?v_30 ?v_69) ?v_33)) (or (or ?v_127 P35) ?v_211)) (or (or ?v_35 ?v_36) ?v_95)) (or (or ?v_176 ?v_38) P44)) (or (or ?v_101 ?v_4) ?v_39)) (or (or ?v_40 ?v_31) ?v_236)) (or (or ?v_116 ?v_45) ?v_41)) (or (or ?v_90 ?v_42) ?v_234)) (or (or P0 ?v_44) ?v_205)) (or (or ?v_45 ?v_103) P34)) (or (or ?v_85 ?v_123) ?v_1)) (or (or ?v_46 ?v_187) ?v_258)) (or (or ?v_47 P26) ?v_104)) (or (or ?v_162 ?v_48) ?v_111)) (or (or ?v_8 ?v_49) ?v_227)) (or (or P37 ?v_50) ?v_110)) (or (or ?v_16 ?v_46) ?v_52)) (or (or P24 ?v_62) ?v_11)) (or (or ?v_53 ?v_47) ?v_68)) (or (or ?v_21 ?v_105) ?v_93)) (or (or ?v_55 ?v_114) ?v_66)) (or (or ?v_56 ?v_60) ?v_57)) (or (or ?v_58 ?v_165) ?v_59)) (or (or ?v_86 ?v_65) ?v_72)) (or (or P14 ?v_61) ?v_22)) (or (or P11 ?v_157) ?v_50)) (or (or ?v_62 ?v_63) ?v_201)) (or (or ?v_39 ?v_78) ?v_139)) (or (or ?v_137 ?v_66) ?v_150)) (or (or ?v_62 ?v_117) ?v_69)) (or (or ?v_142 ?v_17) ?v_71)) (or (or ?v_72 ?v_73) ?v_46)) (or (or ?v_24 ?v_74) P4)) (or (or ?v_75 P7) ?v_128)) (or (or ?v_98 ?v_77) ?v_6)) (or (or ?v_40 ?v_155) ?v_44)) (or (or P30 ?v_79) ?v_73)) (or (or ?v_217 ?v_76) ?v_112)) (or (or ?v_80 P17) ?v_77)) (or (or ?v_12 ?v_81) P46)) (or (or ?v_82 ?v_2) ?v_48)) (or (or P46 ?v_83) ?v_255)) (or (or ?v_85 P34) P15)) (or (or ?v_156 P31) ?v_88)) (or (or ?v_57 P49) ?v_86)) (or (or P15 P6) ?v_87)) (or (or ?v_3 ?v_210) ?v_88)) (or (or ?v_3 ?v_178) ?v_60)) (or (or ?v_89 ?v_146) ?v_37)) (or (or ?v_33 P29) ?v_172)) (or (or ?v_74 ?v_90) ?v_91)) (or (or ?v_126 ?v_17) ?v_76)) (or (or ?v_93 ?v_94) ?v_95)) (or (or ?v_96 ?v_97) ?v_98)) (or (or ?v_38 ?v_24) ?v_99)) (or (or P46 ?v_100) ?v_46)) (or (or ?v_88 ?v_149) P18)) (or (or P12 ?v_154) P38)) (or (or ?v_96 ?v_101) ?v_102)) (or (or ?v_11 ?v_103) ?v_104)) (or (or ?v_84 ?v_105) ?v_96)) (or (or ?v_106 ?v_107) P31)) (or (or ?v_108 ?v_109) P4)) (or (or P36 ?v_89) ?v_74)) (or (or ?v_62 ?v_110) ?v_3)) (or (or P37 ?v_20) ?v_111)) (or (or ?v_182 ?v_254) ?v_95)) (or (or P47 ?v_34) ?v_41)) (or (or ?v_113 ?v_114) ?v_115)) (or (or ?v_87 ?v_122) ?v_24)) (or (or ?v_20 ?v_114) ?v_33)) (or (or ?v_98 ?v_57) ?v_49)) (or (or ?v_116 ?v_42) ?v_117)) (or (or P20 ?v_118) ?v_41)) (or (or ?v_42 ?v_119) ?v_206)) (or (or ?v_40 ?v_212) ?v_110)) (or (or ?v_120 ?v_4) ?v_228)) (or (or ?v_121 ?v_122) ?v_40)) (or (or ?v_159 ?v_219) ?v_203)) (or (or P36 ?v_123) ?v_163)) (or (or ?v_124 ?v_81) ?v_125)) (or (or ?v_78 ?v_116) ?v_58)) (or (or ?v_126 ?v_30) P42)) (or (or ?v_215 ?v_79) P23)) (or (or ?v_69 ?v_40) ?v_127)) (or (or ?v_128 ?v_26) ?v_74)) (or (or ?v_42 ?v_31) ?v_129)) (or (or P29 P1) ?v_140)) (or (or ?v_83 P17) ?v_65)) (or (or ?v_147 ?v_153) ?v_74)) (or ?v_259 ?v_2)) (or (or P14 P22) ?v_9)) (or (or ?v_31 P10) ?v_164)) (or (or ?v_65 ?v_7) ?v_186)) (or (or ?v_133 ?v_134) ?v_7)) (or (or ?v_135 ?v_136) ?v_137)) (or (or ?v_26 ?v_3) P12)) (or ?v_199 ?v_76)) (or (or ?v_123 ?v_56) ?v_99)) (or (or ?v_202 ?v_138) ?v_139)) (or (or ?v_133 P48) ?v_101)) (or (or ?v_140 ?v_35) ?v_36)) (or (or P34 ?v_89) ?v_129)) (or (or ?v_141 ?v_142) ?v_17)) (or (or P16 ?v_135) P19)) (or (or ?v_77 ?v_143) P21)) (or (or P45 ?v_144) ?v_80)) (or (or P28 ?v_107) ?v_125)) (or (or ?v_26 ?v_145) P46)) (or (or ?v_166 ?v_31) ?v_146)) (or (or P36 ?v_60) ?v_147)) (or (or ?v_129 ?v_28) ?v_113)) (or (or P24 ?v_86) P11)) (or (or ?v_148 ?v_92) ?v_136)) (or (or P40 ?v_149) ?v_150)) (or (or ?v_61 ?v_87) ?v_71)) (or (or ?v_108 ?v_31) ?v_151)) (or (or ?v_129 P32) ?v_152)) (or (or ?v_195 ?v_12) ?v_99)) (or (or ?v_133 ?v_153) ?v_154)) (or (or ?v_74 ?v_155) P35)) (or (or ?v_72 ?v_147) ?v_57)) (or (or ?v_156 ?v_157) ?v_12)) (or (or P14 ?v_138) ?v_91)) (or (or ?v_113 P6) ?v_140)) (or (or ?v_168 ?v_108) ?v_55)) (or (or ?v_68 ?v_46) ?v_192)) (or (or ?v_158 ?v_114) ?v_27)) (or (or ?v_77 ?v_3) ?v_214)) (or (or ?v_160 ?v_117) ?v_110)) (or (or ?v_161 ?v_9) ?v_42)) (or (or ?v_162 ?v_31) ?v_231)) (or (or ?v_24 P11) P42)) (or (or P6 ?v_163) ?v_7)) (or (or ?v_124 ?v_92) ?v_84)) (or (or ?v_74 ?v_251) ?v_90)) (or (or ?v_149 ?v_181) P32)) (or (or P31 P5) ?v_144)) (or (or P7 ?v_164) ?v_165)) (or (or ?v_86 ?v_235) ?v_92)) (or (or ?v_166 ?v_13) ?v_140)) (or (or ?v_143 ?v_167) ?v_168)) (or (or ?v_141 ?v_169) ?v_168)) (or (or P31 ?v_132) ?v_50)) (or (or ?v_196 ?v_126) P7)) (or (or P15 ?v_50) P29)) (or (or P40 ?v_170) ?v_171)) (or (or ?v_27 ?v_172) ?v_3)) (or (or ?v_97 ?v_173) ?v_71)) (or (or P28 ?v_86) ?v_174)) (or (or ?v_69 ?v_121) ?v_53)) (or (or ?v_92 ?v_222) P48)) (or (or ?v_175 ?v_68) ?v_100)) (or (or ?v_135 ?v_168) P18)) (or (or ?v_176 ?v_64) ?v_116)) (or (or P42 ?v_37) P5)) (or (or ?v_102 P49) ?v_27)) (or (or P21 ?v_177) P17)) (or (or ?v_28 ?v_57) P32)) (or (or ?v_178 P3) ?v_90)) (or (or ?v_79 ?v_158) ?v_159)) (or (or ?v_40 ?v_173) P23)) (or (or ?v_179 ?v_21) P48)) (or (or ?v_180 ?v_175) ?v_13)) (or (or ?v_181 ?v_82) ?v_165)) (or (or ?v_72 ?v_77) P4)) (or (or ?v_27 ?v_16) ?v_182)) (or (or ?v_183 ?v_184) ?v_253)) (or (or P17 ?v_189) P26)) (or (or ?v_4 ?v_29) ?v_105)) (or (or ?v_50 ?v_30) P43)) (or (or P49 ?v_71) ?v_104)) (or (or ?v_94 ?v_142) ?v_71)) (or (or ?v_34 ?v_116) ?v_99)) (or (or ?v_186 ?v_7) ?v_31)) (or (or ?v_187 ?v_4) P49)) (or (or ?v_59 ?v_161) ?v_120)) (or (or P4 ?v_145) ?v_232)) (or (or ?v_73 P7) ?v_51)) (or (or ?v_150 ?v_188) ?v_91)) (or (or ?v_189 ?v_149) ?v_198)) (or (or ?v_33 ?v_35) P36)) (or (or ?v_190 ?v_191) ?v_75)) (or (or P46 ?v_154) ?v_86)) (or (or ?v_187 ?v_192) P2)) (or (or ?v_64 ?v_179) ?v_193)) (or (or ?v_194 P40) P37)) (or (or ?v_60 ?v_35) ?v_23)) (or (or ?v_209 ?v_55) ?v_147)) (or (or ?v_143 ?v_106) ?v_168)) (or (or ?v_116 P43) P35)) (or (or ?v_247 ?v_159) ?v_105)) (or (or P25 ?v_189) P0)) (or (or ?v_233 ?v_196) ?v_87)) (or (or ?v_197 P14) ?v_52)) (or (or ?v_91 ?v_198) ?v_96)) (or ?v_199 ?v_15)) (or (or ?v_24 ?v_2) ?v_99)) (or (or ?v_49 ?v_111) ?v_105)) (or (or ?v_99 ?v_200) ?v_98)) (or (or ?v_126 ?v_112) ?v_1)) (or (or ?v_169 ?v_73) ?v_126)) (or (or ?v_182 ?v_62) ?v_119)) (or (or ?v_118 ?v_135) ?v_201)) (or (or ?v_105 ?v_154) ?v_143)) (or (or ?v_165 ?v_202) ?v_142)) (or (or ?v_126 ?v_108) ?v_178)) (or (or ?v_33 ?v_90) ?v_203)) (or (or ?v_165 ?v_136) ?v_91)) (or (or ?v_92 ?v_162) ?v_182)) (or (or ?v_105 P44) P23)) (or (or ?v_107 ?v_180) ?v_174)) (or (or ?v_204 ?v_22) ?v_108)) (or (or ?v_205 ?v_45) ?v_56)) (or (or ?v_53 ?v_135) ?v_57)) (or (or ?v_12 ?v_206) ?v_186)) (or (or ?v_100 P13) ?v_110)) (or (or ?v_155 ?v_95) ?v_141)) (or (or ?v_207 ?v_47) ?v_109)) (or (or ?v_208 ?v_193) ?v_224)) (or (or ?v_7 ?v_162) ?v_81)) (or (or P26 ?v_176) ?v_209)) (or (or ?v_97 ?v_203) P13)) (or (or ?v_78 ?v_153) ?v_72)) (or (or ?v_176 ?v_62) P36)) (or (or ?v_45 ?v_186) ?v_210)) (or (or ?v_108 P40) ?v_186)) (or (or P36 ?v_211) ?v_148)) (or (or P22 P17) ?v_8)) (or (or ?v_136 ?v_114) ?v_212)) (or (or ?v_167 P49) ?v_49)) (or (or ?v_208 ?v_213) ?v_102)) (or (or ?v_168 P27) ?v_103)) (or (or ?v_93 ?v_246) ?v_24)) (or (or ?v_36 ?v_140) P10)) (or (or P32 ?v_24) ?v_96)) (or (or P20 ?v_58) ?v_145)) (or (or ?v_143 ?v_146) P11)) (or (or ?v_104 ?v_214) ?v_129)) (or (or ?v_92 P12) ?v_215)) (or (or ?v_238 ?v_216) ?v_214)) (or (or ?v_192 ?v_143) ?v_100)) (or (or P9 ?v_193) ?v_218)) (or (or P35 P30) ?v_92)) (or (or ?v_34 P17) ?v_217)) (or (or ?v_57 ?v_36) ?v_9)) (or (or ?v_193 ?v_79) ?v_218)) (or (or ?v_17 ?v_9) ?v_110)) (or (or P39 P38) ?v_219)) (or (or ?v_175 ?v_64) ?v_104)) (or (or ?v_220 ?v_30) ?v_47)) (or (or ?v_237 ?v_141) ?v_189)) (or (or ?v_191 ?v_106) ?v_75)) (or (or P29 ?v_119) ?v_221)) (or (or P49 ?v_215) ?v_92)) (or (or ?v_17 ?v_222) P25)) (or (or ?v_223 ?v_107) ?v_87)) (or (or ?v_146 ?v_83) ?v_2)) (or (or ?v_162 ?v_194) ?v_99)) (or (or ?v_87 ?v_224) ?v_176)) (or (or ?v_215 ?v_68) ?v_100)) (or (or ?v_191 ?v_225) ?v_174)) (or (or ?v_74 ?v_134) ?v_29)) (or (or ?v_6 ?v_52) ?v_226)) (or (or ?v_225 P15) ?v_75)) (or (or ?v_55 P13) P22)) (or (or ?v_206 ?v_99) ?v_244)) (or (or ?v_189 ?v_202) ?v_217)) (or (or ?v_118 ?v_77) ?v_84)) (or (or ?v_95 P47) ?v_103)) (or (or ?v_99 ?v_73) ?v_203)) (or (or ?v_227 P40) ?v_212)) (or (or ?v_228 ?v_209) P7)) (or (or P1 P8) P18)) (or (or P22 ?v_169) ?v_76)) (or (or ?v_194 ?v_158) ?v_40)) (or (or ?v_158 ?v_11) ?v_140)) (or (or ?v_252 ?v_172) P49)) (or (or ?v_213 P46) ?v_208)) (or (or ?v_229 ?v_4) ?v_230)) (or (or ?v_205 ?v_53) ?v_106)) (or (or P8 ?v_2) ?v_56)) (or (or ?v_231 P39) ?v_122)) (or (or ?v_183 ?v_57) ?v_232)) (or (or ?v_22 ?v_113) ?v_146)) (or (or ?v_144 ?v_171) P27)) (or (or ?v_63 ?v_105) ?v_176)) (or (or ?v_233 ?v_198) ?v_242)) (or (or ?v_224 ?v_42) P22)) (or (or P34 ?v_24) P21)) (or (or ?v_117 ?v_141) ?v_31)) (or (or ?v_194 ?v_50) ?v_202)) (or (or ?v_154 ?v_133) ?v_185)) (or (or ?v_60 ?v_30) ?v_239)) (or (or ?v_234 ?v_79) ?v_178)) (or (or ?v_133 ?v_235) ?v_23)) (or (or ?v_0 ?v_141) ?v_149)) (or (or P34 ?v_77) ?v_120)) (or (or ?v_106 ?v_172) ?v_236)) (or (or ?v_175 ?v_210) ?v_91)) (or (or ?v_80 P22) P13)) (or (or ?v_131 ?v_119) ?v_151)) (or (or ?v_35 ?v_102) P23)) (or (or P4 P18) ?v_176)) (or (or ?v_148 ?v_51) ?v_237)) (or (or P39 ?v_204) P23)) (or (or ?v_57 ?v_53) ?v_96)) (or (or ?v_103 ?v_22) ?v_117)) (or (or ?v_188 ?v_207) ?v_152)) (or (or ?v_103 ?v_136) P23)) (or (or ?v_93 P28) ?v_238)) (or (or ?v_204 ?v_239) ?v_139)) (or (or ?v_59 ?v_192) ?v_181)) (or (or ?v_119 ?v_148) ?v_223)) (or (or ?v_124 P36) P18)) (or (or ?v_124 ?v_225) P5)) (or (or ?v_139 ?v_86) (not P17))) (or (or ?v_109 ?v_239) ?v_192)) (or (or ?v_40 ?v_240) ?v_241)) (or (or P30 P17) ?v_235)) (or (or ?v_189 ?v_166) ?v_139)) (or (or ?v_36 P31) ?v_66)) (or (or ?v_13 ?v_166) ?v_245)) (or (or ?v_195 P45) ?v_192)) (or (or P7 ?v_29) ?v_88)) (or (or ?v_63 ?v_212) ?v_90)) (or (or ?v_211 ?v_238) ?v_210)) (or (or P13 ?v_160) ?v_121)) (or (or P33 ?v_1) ?v_175)) (or (or P19 ?v_89) ?v_164)) (or (or ?v_124 P25) P36)) (or (or ?v_188 ?v_158) ?v_27)) (or (or ?v_242 ?v_97) ?v_6)) (or (or ?v_162 ?v_1) ?v_24)) (or (or ?v_243 ?v_68) ?v_77)) (or (or ?v_53 P2) ?v_34)) (or (or ?v_66 ?v_142) ?v_158)) (or (or ?v_116 ?v_216) ?v_87)) (or (or ?v_171 ?v_210) ?v_13)) (or (or ?v_13 P34) ?v_168)) (or (or ?v_165 ?v_88) ?v_80)) (or (or ?v_190 ?v_62) ?v_161)) (or (or ?v_222 ?v_168) ?v_209)) (or (or ?v_190 ?v_153) ?v_201)) (or (or ?v_23 ?v_200) ?v_157)) (or (or ?v_74 ?v_188) ?v_73)) (or (or P9 ?v_76) ?v_59)) (or (or ?v_49 P47) ?v_2)) (or (or P47 ?v_23) ?v_82)) (or (or ?v_202 ?v_137) ?v_147)) (or (or P36 ?v_120) ?v_179)) (or (or ?v_82 P39) ?v_140)) (or (or P8 P42) ?v_213)) (or (or ?v_194 ?v_208) ?v_8)) (or (or ?v_34 ?v_62) ?v_165)) (or (or ?v_82 ?v_188) ?v_197)) (or (or ?v_201 ?v_244) ?v_129)) (or (or ?v_163 ?v_194) ?v_38)) (or (or ?v_225 ?v_119) ?v_245)) (or (or ?v_243 ?v_164) ?v_4)) (or (or ?v_203 ?v_75) ?v_89)) (or (or ?v_7 ?v_96) P37)) (or (or P13 ?v_225) ?v_80)) (or (or ?v_244 ?v_220) P19)) (or (or P21 ?v_220) ?v_103)) (or (or ?v_246 ?v_59) ?v_69)) (or (or ?v_198 ?v_210) ?v_162)) (or (or ?v_6 ?v_69) ?v_122)) (or (or ?v_177 ?v_45) ?v_245)) (or (or ?v_65 ?v_220) ?v_229)) (or (or ?v_66 ?v_247) ?v_38)) (or (or ?v_40 ?v_110) P34)) (or (or ?v_38 ?v_140) ?v_108)) (or (or ?v_250 ?v_164) P8)) (or (or ?v_61 ?v_119) ?v_215)) (or (or ?v_219 ?v_95) ?v_81)) (or (or ?v_137 ?v_125) ?v_191)) (or (or ?v_33 ?v_239) ?v_132)) (or (or ?v_216 ?v_209) ?v_15)) (or (or ?v_164 ?v_220) ?v_188)) (or (or ?v_198 ?v_15) ?v_248)) (or (or ?v_126 ?v_41) ?v_64)) (or (or ?v_257 ?v_191) ?v_182)) (or (or ?v_170 ?v_200) ?v_52)) (or (or ?v_249 ?v_244) ?v_247)) (or (or ?v_232 ?v_83) ?v_170)) (or (or ?v_114 ?v_41) ?v_146)) (or (or ?v_24 ?v_217) P6)) (or (or ?v_109 ?v_46) ?v_85)) (or (or ?v_39 ?v_178) ?v_197)) (or (or ?v_44 ?v_122) ?v_249)) (or (or P35 ?v_99) ?v_184)) (or (or ?v_220 ?v_135) ?v_29)) (or (or P48 ?v_34) ?v_200)) (or (or ?v_55 ?v_82) ?v_149)) (or (or ?v_149 P22) ?v_243)) (or (or ?v_125 P14) ?v_174)) (or (or ?v_153 ?v_7) ?v_65)) (or (or ?v_188 P30) ?v_136)) (or (or ?v_186 ?v_141) ?v_124)) (or (or P4 ?v_189) P24)) (or (or ?v_8 ?v_139) ?v_88)) (or (or ?v_203 ?v_68) P42)) (or (or ?v_248 ?v_42) ?v_170)) (or (or ?v_6 P34) ?v_59)) (or (or ?v_178 ?v_232) ?v_214)) (or (or ?v_214 ?v_33) ?v_143)) (or (or ?v_228 ?v_74) ?v_39)) (or (or ?v_247 ?v_97) ?v_212)) (or (or ?v_88 ?v_196) ?v_140)) (or (or ?v_193 ?v_250) ?v_124)) (or (or P6 ?v_72) ?v_33)) (or (or ?v_74 ?v_239) ?v_71)) (or (or ?v_26 ?v_6) ?v_167)) (or (or ?v_44 ?v_260) ?v_128)) (or (or ?v_109 ?v_251) ?v_173)) (or (or ?v_9 ?v_82) ?v_196)) (or (or ?v_17 ?v_86) P47)) (or (or P41 ?v_234) ?v_24)) (or (or ?v_75 ?v_2) ?v_145)) (or (or ?v_185 ?v_1) ?v_42)) (or (or ?v_91 ?v_205) ?v_89)) (or (or ?v_154 ?v_87) P40)) (or ?v_262 ?v_202)) (or (or P41 ?v_74) ?v_152)) (or (or ?v_134 ?v_163) ?v_174)) (or (or ?v_17 P19) ?v_137)) (or (or ?v_252 ?v_12) ?v_6)) (or (or ?v_83 ?v_166) ?v_185)) (or (or ?v_90 ?v_78) ?v_213)) (or (or ?v_50 ?v_141) ?v_205)) (or (or ?v_248 ?v_119) P25)) (or (or ?v_230 ?v_107) ?v_61)) (or (or ?v_141 ?v_50) P26)) (or (or P23 ?v_35) ?v_9)) (or (or P32 ?v_197) ?v_209)) (or (or P47 ?v_20) ?v_127)) (or (or P35 P48) P20)) (or (or ?v_220 P15) ?v_208)) (or (or ?v_253 ?v_104) ?v_254)) (or (or ?v_255 P3) ?v_216)) (or (or P1 ?v_144) ?v_46)) (or (or ?v_117 ?v_159) P38)) (or (or ?v_124 ?v_98) P35)) (or (or ?v_153 ?v_113) ?v_148)) (or (or ?v_256 ?v_234) P48)) (or (or ?v_250 ?v_160) ?v_196)) (or (or P8 ?v_150) ?v_257)) (or (or P40 ?v_33) P44)) (or (or ?v_143 ?v_219) ?v_190)) (or (or ?v_59 ?v_41) ?v_208)) (or (or ?v_236 ?v_188) ?v_150)) (or (or ?v_221 ?v_99) ?v_157)) (or (or P16 ?v_89) ?v_241)) (or (or ?v_9 ?v_178) ?v_86)) (or (or ?v_63 ?v_144) ?v_92)) (or (or ?v_177 ?v_30) ?v_236)) (or (or ?v_182 ?v_27) P1)) (or (or ?v_87 ?v_209) ?v_69)) (or (or ?v_192 ?v_256) ?v_236)) (or (or ?v_109 ?v_232) ?v_145)) (or (or ?v_145 ?v_90) ?v_197)) (or (or P33 ?v_215) ?v_94)) (or (or ?v_213 ?v_12) ?v_42)) (or (or ?v_27 P18) ?v_132)) (or (or ?v_195 ?v_106) ?v_30)) (or (or ?v_48 ?v_39) ?v_35)) (or (or ?v_181 ?v_205) ?v_42)) (or (or P24 P1) ?v_93)) (or (or ?v_113 P11) ?v_80)) (or (or ?v_137 ?v_197) ?v_58)) (or (or ?v_140 ?v_132) ?v_180)) (or (or P19 P12) ?v_60)) (or (or ?v_143 ?v_163) ?v_197)) (or (or ?v_52 ?v_132) ?v_12)) (or (or ?v_108 ?v_257) ?v_38)) (or (or ?v_92 P3) ?v_158)) (or (or ?v_163 ?v_30) ?v_60)) (or (or P18 ?v_125) ?v_75)) (or (or ?v_149 ?v_191) ?v_36)) (or (or ?v_149 ?v_108) ?v_39)) (or (or P12 ?v_113) ?v_76)) (or (or P34 ?v_74) ?v_58)) (or (or ?v_220 P19) ?v_258)) (or (or ?v_105 P21) ?v_122)) (or (or ?v_165 P10) ?v_194)) (or (or ?v_35 ?v_185) ?v_111)) (or (or ?v_12 ?v_142) ?v_256)) (or ?v_259 ?v_78)) (or (or ?v_170 ?v_157) ?v_155)) (or (or ?v_163 ?v_27) ?v_150)) (or (or P10 ?v_254) ?v_42)) (or (or ?v_127 ?v_42) ?v_71)) (or (or ?v_168 ?v_24) ?v_121)) (or (or ?v_251 ?v_23) ?v_36)) (or (or ?v_58 ?v_82) ?v_38)) (or (or ?v_91 ?v_254) ?v_244)) (or (or ?v_119 ?v_178) ?v_13)) (or (or ?v_11 ?v_48) ?v_210)) (or (or ?v_246 ?v_125) ?v_203)) (or (or ?v_116 ?v_238) ?v_151)) (or (or P44 ?v_239) ?v_64)) (or (or P47 ?v_222) P41)) (or (or P36 ?v_62) ?v_162)) (or (or ?v_68 ?v_246) ?v_6)) (or (or ?v_151 ?v_170) ?v_51)) (or (or P6 P15) ?v_103)) (or (or ?v_254 ?v_223) ?v_260)) (or (or P26 ?v_163) ?v_111)) (or (or ?v_261 ?v_22) ?v_99)) (or (or ?v_4 ?v_111) ?v_148)) (or (or P41 ?v_176) ?v_166)) (or (or ?v_219 ?v_244) ?v_138)) (or (or ?v_151 ?v_53) ?v_177)) (or (or ?v_252 ?v_202) (not ?v_186))) (or (or ?v_149 ?v_207) P25)) (or (or ?v_51 ?v_79) ?v_153)) (or (or ?v_163 ?v_121) ?v_3)) (or (or ?v_210 ?v_30) ?v_35)) (or (or ?v_136 ?v_65) ?v_251)) (or (or ?v_148 P41) P38)) (or (or ?v_88 P33) ?v_169)) (or (or ?v_152 ?v_53) P37)) (or (or ?v_30 ?v_261) ?v_38)) (or (or ?v_21 ?v_96) ?v_155)) (or (or ?v_182 ?v_231) ?v_95)) (or (or ?v_187 ?v_212) ?v_61)) (or (or P11 P4) ?v_99)) (or (or ?v_101 ?v_261) ?v_136)) (or (or P20 ?v_72) ?v_223)) (or (or ?v_140 ?v_197) P10)) (or (or P43 ?v_120) ?v_241)) (or (or ?v_216 ?v_232) ?v_28)) (or (or ?v_59 ?v_104) ?v_81)) (or (or ?v_172 ?v_216) ?v_241)) (or (or ?v_185 ?v_126) P31)) (or (or ?v_175 ?v_138) ?v_6)) (or (or ?v_21 ?v_238) ?v_241)) (or (or ?v_214 P25) ?v_6)) (or (or P30 ?v_21) P45)) (or (or ?v_92 ?v_208) ?v_47)) (or (or ?v_161 ?v_246) ?v_69)) (or (or P0 ?v_73) ?v_167)) (or (or ?v_161 P48) ?v_83)) (or (or ?v_66 ?v_217) ?v_126)) (or (or ?v_190 ?v_105) ?v_237)) (or (or ?v_129 P8) ?v_220)) (or (or P27 P12) P15)) (or (or ?v_69 ?v_218) P38)) (or (or P26 ?v_183) ?v_103)) (or (or ?v_35 ?v_164) ?v_190)) (or (or ?v_80 ?v_20) ?v_9)) (or ?v_262 ?v_156)) (or (or ?v_83 ?v_195) ?v_227)) (or (or P28 ?v_134) P11)) (or (or P34 ?v_150) ?v_184)) (or (or ?v_99 P45) ?v_261)) (or (or ?v_191 ?v_85) ?v_172)) (or (or ?v_6 ?v_140) ?v_212)) (or (or ?v_63 ?v_6) ?v_148)))))))))))))))))))))))))))))))))))))))
(check-sat)
(exit)
